20
 1 380 19
 2 220 11
 3 140 7
 4 60 3
 5 140 7
 6 140 7
 7 220 11
 8 320 16
 9 220 11
 10 380 19
 11 300 15
 12 140 7
 13 160 8
 14 340 17
 15 200 10
 16 120 6
 17 80 4
 18 380 19
 19 20 1
 20 300 15
380